% Auto-generated by scripts/generate_dzn.py
% problem_type   = polyominoes
% instance       = polyominoes_95
% source_json    = instances_json/0_low_blowup/polyominoes_95.json
% blowup         = 0.6072234762979684
% representation = DFA

mode = 0;

size = 6;
tiles = 4;
n_expressions = 4;
Q = 105;
S = 5;
q0 = [1, 1, 1, 1];
F = [{27}, {80}, {83}, {31}];
weights = [6, 6, 10, 10, 2, 7, 4, 2, 9, 8, 10, 8, 7, 10, 10, 5, 9, 2, 8, 2, 6, 2, 7, 7, 9, 7, 10, 9, 1, 7, 8, 2, 5, 9, 6, 8];
d_dfa = array3d(1..4, 1..105, 1..5, [
  % k = 1
    2, 1, 1, 1, 1,
    4, 3, 3, 3, 3,
    36, 5, 5, 5, 5,
    7, 6, 6, 6, 6,
    36, 8, 8, 8, 8,
    36, 9, 9, 9, 9,
    36, 10, 10, 10, 10,
    36, 11, 11, 11, 11,
    36, 12, 12, 12, 12,
    36, 13, 13, 13, 13,
    36, 14, 14, 14, 14,
    36, 15, 15, 15, 15,
    36, 16, 16, 16, 16,
    18, 17, 17, 17, 17,
    20, 19, 19, 19, 19,
    36, 21, 21, 21, 21,
    18, 36, 36, 36, 36,
    22, 36, 36, 36, 36,
    23, 36, 36, 36, 36,
    24, 36, 36, 36, 36,
    24, 20, 20, 20, 20,
    36, 25, 25, 25, 25,
    26, 36, 36, 36, 36,
    27, 36, 36, 36, 36,
    36, 28, 28, 28, 28,
    27, 29, 29, 29, 29,
    36, 27, 27, 27, 27,
    36, 30, 30, 30, 30,
    36, 31, 31, 31, 31,
    36, 32, 32, 32, 32,
    36, 33, 33, 33, 33,
    36, 20, 20, 20, 20,
    36, 34, 34, 34, 34,
    36, 35, 35, 35, 35,
    27, 24, 24, 24, 24,
    36, 36, 36, 36, 36,
    0, 0, 0, 0, 0,
    0, 0, 0, 0, 0,
    0, 0, 0, 0, 0,
    0, 0, 0, 0, 0,
    0, 0, 0, 0, 0,
    0, 0, 0, 0, 0,
    0, 0, 0, 0, 0,
    0, 0, 0, 0, 0,
    0, 0, 0, 0, 0,
    0, 0, 0, 0, 0,
    0, 0, 0, 0, 0,
    0, 0, 0, 0, 0,
    0, 0, 0, 0, 0,
    0, 0, 0, 0, 0,
    0, 0, 0, 0, 0,
    0, 0, 0, 0, 0,
    0, 0, 0, 0, 0,
    0, 0, 0, 0, 0,
    0, 0, 0, 0, 0,
    0, 0, 0, 0, 0,
    0, 0, 0, 0, 0,
    0, 0, 0, 0, 0,
    0, 0, 0, 0, 0,
    0, 0, 0, 0, 0,
    0, 0, 0, 0, 0,
    0, 0, 0, 0, 0,
    0, 0, 0, 0, 0,
    0, 0, 0, 0, 0,
    0, 0, 0, 0, 0,
    0, 0, 0, 0, 0,
    0, 0, 0, 0, 0,
    0, 0, 0, 0, 0,
    0, 0, 0, 0, 0,
    0, 0, 0, 0, 0,
    0, 0, 0, 0, 0,
    0, 0, 0, 0, 0,
    0, 0, 0, 0, 0,
    0, 0, 0, 0, 0,
    0, 0, 0, 0, 0,
    0, 0, 0, 0, 0,
    0, 0, 0, 0, 0,
    0, 0, 0, 0, 0,
    0, 0, 0, 0, 0,
    0, 0, 0, 0, 0,
    0, 0, 0, 0, 0,
    0, 0, 0, 0, 0,
    0, 0, 0, 0, 0,
    0, 0, 0, 0, 0,
    0, 0, 0, 0, 0,
    0, 0, 0, 0, 0,
    0, 0, 0, 0, 0,
    0, 0, 0, 0, 0,
    0, 0, 0, 0, 0,
    0, 0, 0, 0, 0,
    0, 0, 0, 0, 0,
    0, 0, 0, 0, 0,
    0, 0, 0, 0, 0,
    0, 0, 0, 0, 0,
    0, 0, 0, 0, 0,
    0, 0, 0, 0, 0,
    0, 0, 0, 0, 0,
    0, 0, 0, 0, 0,
    0, 0, 0, 0, 0,
    0, 0, 0, 0, 0,
    0, 0, 0, 0, 0,
    0, 0, 0, 0, 0,
    0, 0, 0, 0, 0,
    0, 0, 0, 0, 0,
    0, 0, 0, 0, 0,

  % k = 2
    1, 2, 1, 1, 1,
    3, 4, 3, 3, 3,
    5, 81, 5, 5, 5,
    6, 7, 6, 6, 6,
    8, 81, 8, 8, 8,
    9, 81, 9, 9, 9,
    10, 81, 10, 10, 10,
    11, 81, 11, 11, 11,
    12, 81, 12, 12, 12,
    13, 81, 13, 13, 13,
    14, 15, 14, 14, 14,
    16, 81, 16, 16, 16,
    17, 81, 17, 17, 17,
    81, 18, 81, 81, 81,
    81, 19, 81, 81, 81,
    15, 20, 15, 15, 15,
    21, 22, 21, 21, 21,
    81, 23, 81, 81, 81,
    81, 24, 81, 81, 81,
    81, 25, 81, 81, 81,
    81, 26, 81, 81, 81,
    81, 27, 81, 81, 81,
    81, 28, 81, 81, 81,
    81, 29, 81, 81, 81,
    81, 30, 81, 81, 81,
    81, 31, 81, 81, 81,
    81, 32, 81, 81, 81,
    81, 33, 81, 81, 81,
    34, 81, 34, 34, 34,
    33, 81, 33, 33, 33,
    81, 35, 81, 81, 81,
    81, 36, 81, 81, 81,
    37, 81, 37, 37, 37,
    38, 81, 38, 38, 38,
    81, 39, 81, 81, 81,
    40, 81, 40, 40, 40,
    41, 81, 41, 41, 41,
    42, 81, 42, 42, 42,
    43, 81, 43, 43, 43,
    44, 81, 44, 44, 44,
    45, 81, 45, 45, 45,
    81, 46, 81, 81, 81,
    47, 81, 47, 47, 47,
    48, 81, 48, 48, 48,
    81, 49, 81, 81, 81,
    81, 50, 81, 81, 81,
    51, 81, 51, 51, 51,
    52, 53, 52, 52, 52,
    81, 54, 81, 81, 81,
    81, 55, 81, 81, 81,
    81, 56, 81, 81, 81,
    81, 57, 81, 81, 81,
    81, 58, 81, 81, 81,
    81, 59, 81, 81, 81,
    81, 60, 81, 81, 81,
    81, 61, 81, 81, 81,
    81, 62, 81, 81, 81,
    81, 63, 81, 81, 81,
    81, 64, 81, 81, 81,
    64, 81, 64, 64, 64,
    81, 65, 81, 81, 81,
    81, 66, 81, 81, 81,
    81, 67, 81, 81, 81,
    68, 81, 68, 68, 68,
    66, 69, 66, 66, 66,
    70, 81, 70, 70, 70,
    69, 81, 69, 69, 69,
    71, 81, 71, 71, 71,
    72, 81, 72, 72, 72,
    73, 81, 73, 73, 73,
    74, 81, 74, 74, 74,
    75, 81, 75, 75, 75,
    76, 81, 76, 76, 76,
    81, 77, 81, 81, 81,
    78, 81, 78, 78, 78,
    77, 81, 77, 77, 77,
    81, 79, 81, 81, 81,
    79, 81, 79, 79, 79,
    81, 80, 81, 81, 81,
    80, 81, 80, 80, 80,
    81, 81, 81, 81, 81,
    0, 0, 0, 0, 0,
    0, 0, 0, 0, 0,
    0, 0, 0, 0, 0,
    0, 0, 0, 0, 0,
    0, 0, 0, 0, 0,
    0, 0, 0, 0, 0,
    0, 0, 0, 0, 0,
    0, 0, 0, 0, 0,
    0, 0, 0, 0, 0,
    0, 0, 0, 0, 0,
    0, 0, 0, 0, 0,
    0, 0, 0, 0, 0,
    0, 0, 0, 0, 0,
    0, 0, 0, 0, 0,
    0, 0, 0, 0, 0,
    0, 0, 0, 0, 0,
    0, 0, 0, 0, 0,
    0, 0, 0, 0, 0,
    0, 0, 0, 0, 0,
    0, 0, 0, 0, 0,
    0, 0, 0, 0, 0,
    0, 0, 0, 0, 0,
    0, 0, 0, 0, 0,
    0, 0, 0, 0, 0,

  % k = 3
    1, 1, 2, 1, 1,
    4, 4, 3, 4, 4,
    6, 6, 5, 6, 6,
    8, 8, 7, 8, 8,
    10, 10, 9, 10, 10,
    105, 105, 11, 105, 105,
    105, 105, 12, 105, 105,
    13, 13, 105, 13, 13,
    14, 14, 105, 14, 14,
    15, 15, 105, 15, 15,
    16, 16, 105, 16, 16,
    17, 17, 105, 17, 17,
    18, 18, 105, 18, 18,
    19, 19, 105, 19, 19,
    20, 20, 105, 20, 20,
    21, 21, 105, 21, 21,
    22, 22, 105, 22, 22,
    23, 23, 105, 23, 23,
    25, 25, 24, 25, 25,
    26, 26, 105, 26, 26,
    105, 105, 27, 105, 105,
    28, 28, 105, 28, 28,
    105, 105, 29, 105, 105,
    105, 105, 30, 105, 105,
    105, 105, 31, 105, 105,
    33, 33, 32, 33, 33,
    105, 105, 34, 105, 105,
    105, 105, 35, 105, 105,
    105, 105, 36, 105, 105,
    105, 105, 37, 105, 105,
    105, 105, 38, 105, 105,
    105, 105, 39, 105, 105,
    105, 105, 40, 105, 105,
    105, 105, 41, 105, 105,
    105, 105, 42, 105, 105,
    105, 105, 43, 105, 105,
    105, 105, 44, 105, 105,
    105, 105, 45, 105, 105,
    46, 46, 105, 46, 46,
    105, 105, 46, 105, 105,
    105, 105, 47, 105, 105,
    105, 105, 48, 105, 105,
    49, 49, 105, 49, 49,
    105, 105, 50, 105, 105,
    105, 105, 51, 105, 105,
    52, 52, 105, 52, 52,
    105, 105, 53, 105, 105,
    105, 105, 54, 105, 105,
    55, 55, 105, 55, 55,
    56, 56, 105, 56, 56,
    105, 105, 57, 105, 105,
    58, 58, 105, 58, 58,
    59, 59, 105, 59, 59,
    105, 105, 59, 105, 105,
    60, 60, 105, 60, 60,
    61, 61, 105, 61, 61,
    62, 62, 105, 62, 62,
    63, 63, 105, 63, 63,
    64, 64, 105, 64, 64,
    65, 65, 105, 65, 65,
    66, 66, 105, 66, 66,
    67, 67, 105, 67, 67,
    68, 68, 105, 68, 68,
    69, 69, 105, 69, 69,
    105, 105, 70, 105, 105,
    105, 105, 71, 105, 105,
    105, 105, 72, 105, 105,
    105, 105, 73, 105, 105,
    105, 105, 74, 105, 105,
    105, 105, 75, 105, 105,
    105, 105, 76, 105, 105,
    77, 77, 105, 77, 77,
    105, 105, 78, 105, 105,
    105, 105, 77, 105, 105,
    105, 105, 79, 105, 105,
    80, 80, 105, 80, 80,
    105, 105, 80, 105, 105,
    105, 105, 81, 105, 105,
    82, 82, 105, 82, 82,
    105, 105, 83, 105, 105,
    84, 84, 105, 84, 84,
    85, 85, 105, 85, 85,
    83, 83, 105, 83, 83,
    86, 86, 105, 86, 86,
    87, 87, 105, 87, 87,
    88, 88, 105, 88, 88,
    89, 89, 105, 89, 89,
    90, 90, 105, 90, 90,
    92, 92, 91, 92, 92,
    105, 105, 93, 105, 105,
    105, 105, 94, 105, 105,
    105, 105, 95, 105, 105,
    105, 105, 96, 105, 105,
    97, 97, 105, 97, 97,
    105, 105, 97, 105, 105,
    105, 105, 98, 105, 105,
    99, 99, 105, 99, 99,
    100, 100, 105, 100, 100,
    101, 101, 105, 101, 101,
    102, 102, 105, 102, 102,
    103, 103, 105, 103, 103,
    104, 104, 105, 104, 104,
    74, 74, 105, 74, 74,
    76, 76, 105, 76, 76,
    105, 105, 105, 105, 105,

  % k = 4
    1, 1, 1, 2, 1,
    3, 3, 3, 4, 3,
    47, 47, 47, 5, 47,
    6, 6, 6, 7, 6,
    47, 47, 47, 8, 47,
    9, 9, 9, 8, 9,
    47, 47, 47, 10, 47,
    11, 11, 11, 47, 11,
    12, 12, 12, 47, 12,
    13, 13, 13, 47, 13,
    14, 14, 14, 47, 14,
    15, 15, 15, 47, 15,
    16, 16, 16, 47, 16,
    17, 17, 17, 47, 17,
    18, 18, 18, 47, 18,
    19, 19, 19, 47, 19,
    47, 47, 47, 20, 47,
    21, 21, 21, 22, 21,
    47, 47, 47, 23, 47,
    47, 47, 47, 24, 47,
    47, 47, 47, 25, 47,
    25, 25, 25, 26, 25,
    24, 24, 24, 27, 24,
    47, 47, 47, 28, 47,
    29, 29, 29, 47, 29,
    30, 30, 30, 47, 30,
    28, 28, 28, 47, 28,
    47, 47, 47, 31, 47,
    32, 32, 32, 47, 32,
    33, 33, 33, 47, 33,
    31, 31, 31, 47, 31,
    34, 34, 34, 47, 34,
    35, 35, 35, 47, 35,
    36, 36, 36, 47, 36,
    37, 37, 37, 47, 37,
    38, 38, 38, 47, 38,
    39, 39, 39, 47, 39,
    47, 47, 47, 40, 47,
    40, 40, 40, 41, 40,
    47, 47, 47, 42, 47,
    42, 42, 42, 47, 42,
    43, 43, 43, 47, 43,
    44, 44, 44, 47, 44,
    45, 45, 45, 47, 45,
    46, 46, 46, 47, 46,
    24, 24, 24, 47, 24,
    47, 47, 47, 47, 47,
    0, 0, 0, 0, 0,
    0, 0, 0, 0, 0,
    0, 0, 0, 0, 0,
    0, 0, 0, 0, 0,
    0, 0, 0, 0, 0,
    0, 0, 0, 0, 0,
    0, 0, 0, 0, 0,
    0, 0, 0, 0, 0,
    0, 0, 0, 0, 0,
    0, 0, 0, 0, 0,
    0, 0, 0, 0, 0,
    0, 0, 0, 0, 0,
    0, 0, 0, 0, 0,
    0, 0, 0, 0, 0,
    0, 0, 0, 0, 0,
    0, 0, 0, 0, 0,
    0, 0, 0, 0, 0,
    0, 0, 0, 0, 0,
    0, 0, 0, 0, 0,
    0, 0, 0, 0, 0,
    0, 0, 0, 0, 0,
    0, 0, 0, 0, 0,
    0, 0, 0, 0, 0,
    0, 0, 0, 0, 0,
    0, 0, 0, 0, 0,
    0, 0, 0, 0, 0,
    0, 0, 0, 0, 0,
    0, 0, 0, 0, 0,
    0, 0, 0, 0, 0,
    0, 0, 0, 0, 0,
    0, 0, 0, 0, 0,
    0, 0, 0, 0, 0,
    0, 0, 0, 0, 0,
    0, 0, 0, 0, 0,
    0, 0, 0, 0, 0,
    0, 0, 0, 0, 0,
    0, 0, 0, 0, 0,
    0, 0, 0, 0, 0,
    0, 0, 0, 0, 0,
    0, 0, 0, 0, 0,
    0, 0, 0, 0, 0,
    0, 0, 0, 0, 0,
    0, 0, 0, 0, 0,
    0, 0, 0, 0, 0,
    0, 0, 0, 0, 0,
    0, 0, 0, 0, 0,
    0, 0, 0, 0, 0,
    0, 0, 0, 0, 0,
    0, 0, 0, 0, 0,
    0, 0, 0, 0, 0,
    0, 0, 0, 0, 0,
    0, 0, 0, 0, 0,
    0, 0, 0, 0, 0,
    0, 0, 0, 0, 0,
    0, 0, 0, 0, 0,
    0, 0, 0, 0, 0,
    0, 0, 0, 0, 0,
    0, 0, 0, 0, 0
]);
d_nfa = array3d(1..4, 1..105, 1..5, [
  % k = 1
    {}, {}, {}, {}, {},
    {}, {}, {}, {}, {},
    {}, {}, {}, {}, {},
    {}, {}, {}, {}, {},
    {}, {}, {}, {}, {},
    {}, {}, {}, {}, {},
    {}, {}, {}, {}, {},
    {}, {}, {}, {}, {},
    {}, {}, {}, {}, {},
    {}, {}, {}, {}, {},
    {}, {}, {}, {}, {},
    {}, {}, {}, {}, {},
    {}, {}, {}, {}, {},
    {}, {}, {}, {}, {},
    {}, {}, {}, {}, {},
    {}, {}, {}, {}, {},
    {}, {}, {}, {}, {},
    {}, {}, {}, {}, {},
    {}, {}, {}, {}, {},
    {}, {}, {}, {}, {},
    {}, {}, {}, {}, {},
    {}, {}, {}, {}, {},
    {}, {}, {}, {}, {},
    {}, {}, {}, {}, {},
    {}, {}, {}, {}, {},
    {}, {}, {}, {}, {},
    {}, {}, {}, {}, {},
    {}, {}, {}, {}, {},
    {}, {}, {}, {}, {},
    {}, {}, {}, {}, {},
    {}, {}, {}, {}, {},
    {}, {}, {}, {}, {},
    {}, {}, {}, {}, {},
    {}, {}, {}, {}, {},
    {}, {}, {}, {}, {},
    {}, {}, {}, {}, {},
    {}, {}, {}, {}, {},
    {}, {}, {}, {}, {},
    {}, {}, {}, {}, {},
    {}, {}, {}, {}, {},
    {}, {}, {}, {}, {},
    {}, {}, {}, {}, {},
    {}, {}, {}, {}, {},
    {}, {}, {}, {}, {},
    {}, {}, {}, {}, {},
    {}, {}, {}, {}, {},
    {}, {}, {}, {}, {},
    {}, {}, {}, {}, {},
    {}, {}, {}, {}, {},
    {}, {}, {}, {}, {},
    {}, {}, {}, {}, {},
    {}, {}, {}, {}, {},
    {}, {}, {}, {}, {},
    {}, {}, {}, {}, {},
    {}, {}, {}, {}, {},
    {}, {}, {}, {}, {},
    {}, {}, {}, {}, {},
    {}, {}, {}, {}, {},
    {}, {}, {}, {}, {},
    {}, {}, {}, {}, {},
    {}, {}, {}, {}, {},
    {}, {}, {}, {}, {},
    {}, {}, {}, {}, {},
    {}, {}, {}, {}, {},
    {}, {}, {}, {}, {},
    {}, {}, {}, {}, {},
    {}, {}, {}, {}, {},
    {}, {}, {}, {}, {},
    {}, {}, {}, {}, {},
    {}, {}, {}, {}, {},
    {}, {}, {}, {}, {},
    {}, {}, {}, {}, {},
    {}, {}, {}, {}, {},
    {}, {}, {}, {}, {},
    {}, {}, {}, {}, {},
    {}, {}, {}, {}, {},
    {}, {}, {}, {}, {},
    {}, {}, {}, {}, {},
    {}, {}, {}, {}, {},
    {}, {}, {}, {}, {},
    {}, {}, {}, {}, {},
    {}, {}, {}, {}, {},
    {}, {}, {}, {}, {},
    {}, {}, {}, {}, {},
    {}, {}, {}, {}, {},
    {}, {}, {}, {}, {},
    {}, {}, {}, {}, {},
    {}, {}, {}, {}, {},
    {}, {}, {}, {}, {},
    {}, {}, {}, {}, {},
    {}, {}, {}, {}, {},
    {}, {}, {}, {}, {},
    {}, {}, {}, {}, {},
    {}, {}, {}, {}, {},
    {}, {}, {}, {}, {},
    {}, {}, {}, {}, {},
    {}, {}, {}, {}, {},
    {}, {}, {}, {}, {},
    {}, {}, {}, {}, {},
    {}, {}, {}, {}, {},
    {}, {}, {}, {}, {},
    {}, {}, {}, {}, {},
    {}, {}, {}, {}, {},
    {}, {}, {}, {}, {},
    {}, {}, {}, {}, {},

  % k = 2
    {}, {}, {}, {}, {},
    {}, {}, {}, {}, {},
    {}, {}, {}, {}, {},
    {}, {}, {}, {}, {},
    {}, {}, {}, {}, {},
    {}, {}, {}, {}, {},
    {}, {}, {}, {}, {},
    {}, {}, {}, {}, {},
    {}, {}, {}, {}, {},
    {}, {}, {}, {}, {},
    {}, {}, {}, {}, {},
    {}, {}, {}, {}, {},
    {}, {}, {}, {}, {},
    {}, {}, {}, {}, {},
    {}, {}, {}, {}, {},
    {}, {}, {}, {}, {},
    {}, {}, {}, {}, {},
    {}, {}, {}, {}, {},
    {}, {}, {}, {}, {},
    {}, {}, {}, {}, {},
    {}, {}, {}, {}, {},
    {}, {}, {}, {}, {},
    {}, {}, {}, {}, {},
    {}, {}, {}, {}, {},
    {}, {}, {}, {}, {},
    {}, {}, {}, {}, {},
    {}, {}, {}, {}, {},
    {}, {}, {}, {}, {},
    {}, {}, {}, {}, {},
    {}, {}, {}, {}, {},
    {}, {}, {}, {}, {},
    {}, {}, {}, {}, {},
    {}, {}, {}, {}, {},
    {}, {}, {}, {}, {},
    {}, {}, {}, {}, {},
    {}, {}, {}, {}, {},
    {}, {}, {}, {}, {},
    {}, {}, {}, {}, {},
    {}, {}, {}, {}, {},
    {}, {}, {}, {}, {},
    {}, {}, {}, {}, {},
    {}, {}, {}, {}, {},
    {}, {}, {}, {}, {},
    {}, {}, {}, {}, {},
    {}, {}, {}, {}, {},
    {}, {}, {}, {}, {},
    {}, {}, {}, {}, {},
    {}, {}, {}, {}, {},
    {}, {}, {}, {}, {},
    {}, {}, {}, {}, {},
    {}, {}, {}, {}, {},
    {}, {}, {}, {}, {},
    {}, {}, {}, {}, {},
    {}, {}, {}, {}, {},
    {}, {}, {}, {}, {},
    {}, {}, {}, {}, {},
    {}, {}, {}, {}, {},
    {}, {}, {}, {}, {},
    {}, {}, {}, {}, {},
    {}, {}, {}, {}, {},
    {}, {}, {}, {}, {},
    {}, {}, {}, {}, {},
    {}, {}, {}, {}, {},
    {}, {}, {}, {}, {},
    {}, {}, {}, {}, {},
    {}, {}, {}, {}, {},
    {}, {}, {}, {}, {},
    {}, {}, {}, {}, {},
    {}, {}, {}, {}, {},
    {}, {}, {}, {}, {},
    {}, {}, {}, {}, {},
    {}, {}, {}, {}, {},
    {}, {}, {}, {}, {},
    {}, {}, {}, {}, {},
    {}, {}, {}, {}, {},
    {}, {}, {}, {}, {},
    {}, {}, {}, {}, {},
    {}, {}, {}, {}, {},
    {}, {}, {}, {}, {},
    {}, {}, {}, {}, {},
    {}, {}, {}, {}, {},
    {}, {}, {}, {}, {},
    {}, {}, {}, {}, {},
    {}, {}, {}, {}, {},
    {}, {}, {}, {}, {},
    {}, {}, {}, {}, {},
    {}, {}, {}, {}, {},
    {}, {}, {}, {}, {},
    {}, {}, {}, {}, {},
    {}, {}, {}, {}, {},
    {}, {}, {}, {}, {},
    {}, {}, {}, {}, {},
    {}, {}, {}, {}, {},
    {}, {}, {}, {}, {},
    {}, {}, {}, {}, {},
    {}, {}, {}, {}, {},
    {}, {}, {}, {}, {},
    {}, {}, {}, {}, {},
    {}, {}, {}, {}, {},
    {}, {}, {}, {}, {},
    {}, {}, {}, {}, {},
    {}, {}, {}, {}, {},
    {}, {}, {}, {}, {},
    {}, {}, {}, {}, {},
    {}, {}, {}, {}, {},

  % k = 3
    {}, {}, {}, {}, {},
    {}, {}, {}, {}, {},
    {}, {}, {}, {}, {},
    {}, {}, {}, {}, {},
    {}, {}, {}, {}, {},
    {}, {}, {}, {}, {},
    {}, {}, {}, {}, {},
    {}, {}, {}, {}, {},
    {}, {}, {}, {}, {},
    {}, {}, {}, {}, {},
    {}, {}, {}, {}, {},
    {}, {}, {}, {}, {},
    {}, {}, {}, {}, {},
    {}, {}, {}, {}, {},
    {}, {}, {}, {}, {},
    {}, {}, {}, {}, {},
    {}, {}, {}, {}, {},
    {}, {}, {}, {}, {},
    {}, {}, {}, {}, {},
    {}, {}, {}, {}, {},
    {}, {}, {}, {}, {},
    {}, {}, {}, {}, {},
    {}, {}, {}, {}, {},
    {}, {}, {}, {}, {},
    {}, {}, {}, {}, {},
    {}, {}, {}, {}, {},
    {}, {}, {}, {}, {},
    {}, {}, {}, {}, {},
    {}, {}, {}, {}, {},
    {}, {}, {}, {}, {},
    {}, {}, {}, {}, {},
    {}, {}, {}, {}, {},
    {}, {}, {}, {}, {},
    {}, {}, {}, {}, {},
    {}, {}, {}, {}, {},
    {}, {}, {}, {}, {},
    {}, {}, {}, {}, {},
    {}, {}, {}, {}, {},
    {}, {}, {}, {}, {},
    {}, {}, {}, {}, {},
    {}, {}, {}, {}, {},
    {}, {}, {}, {}, {},
    {}, {}, {}, {}, {},
    {}, {}, {}, {}, {},
    {}, {}, {}, {}, {},
    {}, {}, {}, {}, {},
    {}, {}, {}, {}, {},
    {}, {}, {}, {}, {},
    {}, {}, {}, {}, {},
    {}, {}, {}, {}, {},
    {}, {}, {}, {}, {},
    {}, {}, {}, {}, {},
    {}, {}, {}, {}, {},
    {}, {}, {}, {}, {},
    {}, {}, {}, {}, {},
    {}, {}, {}, {}, {},
    {}, {}, {}, {}, {},
    {}, {}, {}, {}, {},
    {}, {}, {}, {}, {},
    {}, {}, {}, {}, {},
    {}, {}, {}, {}, {},
    {}, {}, {}, {}, {},
    {}, {}, {}, {}, {},
    {}, {}, {}, {}, {},
    {}, {}, {}, {}, {},
    {}, {}, {}, {}, {},
    {}, {}, {}, {}, {},
    {}, {}, {}, {}, {},
    {}, {}, {}, {}, {},
    {}, {}, {}, {}, {},
    {}, {}, {}, {}, {},
    {}, {}, {}, {}, {},
    {}, {}, {}, {}, {},
    {}, {}, {}, {}, {},
    {}, {}, {}, {}, {},
    {}, {}, {}, {}, {},
    {}, {}, {}, {}, {},
    {}, {}, {}, {}, {},
    {}, {}, {}, {}, {},
    {}, {}, {}, {}, {},
    {}, {}, {}, {}, {},
    {}, {}, {}, {}, {},
    {}, {}, {}, {}, {},
    {}, {}, {}, {}, {},
    {}, {}, {}, {}, {},
    {}, {}, {}, {}, {},
    {}, {}, {}, {}, {},
    {}, {}, {}, {}, {},
    {}, {}, {}, {}, {},
    {}, {}, {}, {}, {},
    {}, {}, {}, {}, {},
    {}, {}, {}, {}, {},
    {}, {}, {}, {}, {},
    {}, {}, {}, {}, {},
    {}, {}, {}, {}, {},
    {}, {}, {}, {}, {},
    {}, {}, {}, {}, {},
    {}, {}, {}, {}, {},
    {}, {}, {}, {}, {},
    {}, {}, {}, {}, {},
    {}, {}, {}, {}, {},
    {}, {}, {}, {}, {},
    {}, {}, {}, {}, {},
    {}, {}, {}, {}, {},
    {}, {}, {}, {}, {},

  % k = 4
    {}, {}, {}, {}, {},
    {}, {}, {}, {}, {},
    {}, {}, {}, {}, {},
    {}, {}, {}, {}, {},
    {}, {}, {}, {}, {},
    {}, {}, {}, {}, {},
    {}, {}, {}, {}, {},
    {}, {}, {}, {}, {},
    {}, {}, {}, {}, {},
    {}, {}, {}, {}, {},
    {}, {}, {}, {}, {},
    {}, {}, {}, {}, {},
    {}, {}, {}, {}, {},
    {}, {}, {}, {}, {},
    {}, {}, {}, {}, {},
    {}, {}, {}, {}, {},
    {}, {}, {}, {}, {},
    {}, {}, {}, {}, {},
    {}, {}, {}, {}, {},
    {}, {}, {}, {}, {},
    {}, {}, {}, {}, {},
    {}, {}, {}, {}, {},
    {}, {}, {}, {}, {},
    {}, {}, {}, {}, {},
    {}, {}, {}, {}, {},
    {}, {}, {}, {}, {},
    {}, {}, {}, {}, {},
    {}, {}, {}, {}, {},
    {}, {}, {}, {}, {},
    {}, {}, {}, {}, {},
    {}, {}, {}, {}, {},
    {}, {}, {}, {}, {},
    {}, {}, {}, {}, {},
    {}, {}, {}, {}, {},
    {}, {}, {}, {}, {},
    {}, {}, {}, {}, {},
    {}, {}, {}, {}, {},
    {}, {}, {}, {}, {},
    {}, {}, {}, {}, {},
    {}, {}, {}, {}, {},
    {}, {}, {}, {}, {},
    {}, {}, {}, {}, {},
    {}, {}, {}, {}, {},
    {}, {}, {}, {}, {},
    {}, {}, {}, {}, {},
    {}, {}, {}, {}, {},
    {}, {}, {}, {}, {},
    {}, {}, {}, {}, {},
    {}, {}, {}, {}, {},
    {}, {}, {}, {}, {},
    {}, {}, {}, {}, {},
    {}, {}, {}, {}, {},
    {}, {}, {}, {}, {},
    {}, {}, {}, {}, {},
    {}, {}, {}, {}, {},
    {}, {}, {}, {}, {},
    {}, {}, {}, {}, {},
    {}, {}, {}, {}, {},
    {}, {}, {}, {}, {},
    {}, {}, {}, {}, {},
    {}, {}, {}, {}, {},
    {}, {}, {}, {}, {},
    {}, {}, {}, {}, {},
    {}, {}, {}, {}, {},
    {}, {}, {}, {}, {},
    {}, {}, {}, {}, {},
    {}, {}, {}, {}, {},
    {}, {}, {}, {}, {},
    {}, {}, {}, {}, {},
    {}, {}, {}, {}, {},
    {}, {}, {}, {}, {},
    {}, {}, {}, {}, {},
    {}, {}, {}, {}, {},
    {}, {}, {}, {}, {},
    {}, {}, {}, {}, {},
    {}, {}, {}, {}, {},
    {}, {}, {}, {}, {},
    {}, {}, {}, {}, {},
    {}, {}, {}, {}, {},
    {}, {}, {}, {}, {},
    {}, {}, {}, {}, {},
    {}, {}, {}, {}, {},
    {}, {}, {}, {}, {},
    {}, {}, {}, {}, {},
    {}, {}, {}, {}, {},
    {}, {}, {}, {}, {},
    {}, {}, {}, {}, {},
    {}, {}, {}, {}, {},
    {}, {}, {}, {}, {},
    {}, {}, {}, {}, {},
    {}, {}, {}, {}, {},
    {}, {}, {}, {}, {},
    {}, {}, {}, {}, {},
    {}, {}, {}, {}, {},
    {}, {}, {}, {}, {},
    {}, {}, {}, {}, {},
    {}, {}, {}, {}, {},
    {}, {}, {}, {}, {},
    {}, {}, {}, {}, {},
    {}, {}, {}, {}, {},
    {}, {}, {}, {}, {},
    {}, {}, {}, {}, {},
    {}, {}, {}, {}, {},
    {}, {}, {}, {}, {},
    {}, {}, {}, {}, {}
]);
